Route #1: 4 52 8 46 34 67 
Route #2: 6 16 49 24 18 50 25 55 31 72 12 
Route #3: 17 40 39 9 32 44 3 51 
Route #4: 26 7 35 14 59 19 54 13 57 15 27 
Route #5: 30 74 21 61 28 62 2 68 75 
Route #6: 33 73 1 22 64 42 43 41 56 23 63 
Route #7: 45 29 5 37 20 70 60 71 69 36 47 48 
Route #8: 53 11 66 65 38 10 58 
cost 735
